TaOMn
1.0
       14.4218997955         0.0000000000         0.0000000000
        0.0000000000         5.7512998581         0.0000000000
        0.0000000000         0.0000000000         5.0816001892
   Ta    O   Mn
    1   2    3
Direct
     0.162300004         0.329299995         0.751900039
     0.837699996         0.670700005         0.248099985
     0.1                 0.1                 0.1
     0.2                 0.4                 0.6
     0.5                 0.3                 0.4
     0.6                 0.2                 0.8
