oqmd_id_1214807, icsd_id_1
1.0
5.065 5.065 -5.065
5.065 -5.065 5.065
-5.065 -5.065 -5.065
Li
29
Direct
0 0 0
0.357 0 0
0.59 0.315 0
0 0.357 0
0.315 0.59 0
0.809 0.62 0
0.62 0.809 0
0.38 0.38 0.188
0.812 0.191 0.191
0.191 0.812 0.191
0.685 0.685 0.274
0.59 0 0.315
0 0.59 0.315
0 0 0.357
0.38 0.188 0.38
0.188 0.38 0.38
0.726 0.41 0.41
0.41 0.726 0.41
0.315 0 0.59
0 0.315 0.59
0.809 0 0.62
0 0.809 0.62
0.643 0.643 0.643
0.685 0.274 0.685
0.274 0.685 0.685
0.41 0.41 0.726
0.62 0 0.809
0 0.62 0.809
0.191 0.191 0.812
