oqmd_id_677955, icsd_id_76947
1.0
2.963 0.000 0.000
-1.482 2.566 0.000
0.000 0.000 4.703
Li
2
Direct
0.333 0.667 0.25
0.667 0.333 0.75
