oqmd_id_17585, icsd_id_104737
1.0
1.656 1.656 -1.656
1.656 -1.656 1.656
-1.656 -1.656 -1.656
Li
1
Direct
0 0 0
