oqmd_id_1216054, icsd_id_1
1.0
-2.947 0.000 0.000
1.474 -2.552 0.000
-1.474 0.851 7.113
Li
3
Direct
0 0 0
0.222 0.778 0.333
0.778 0.222 0.667
