oqmd_id_1214540, icsd_id_1
1.0
0.000 2.075 -2.075
2.075 0.000 2.075
0.000 -2.075 -2.075
Li
1
Direct
0 0 0
