oqmd_id_1215341, icsd_id_1
1.0
2.939 0.000 0.000
-1.469 2.545 0.000
0.000 0.000 4.774
Li
2
Direct
0.333 0.667 0.25
0.667 0.333 0.75
