oqmd_id_1215609, icsd_id_1
1.0
0.000 0.000 -2.766
-2.536 -2.536 1.383
-2.536 2.536 -1.383
Li
2
Direct
0 0 0
0.25 0.5 0.5
