oqmd_id_676289, icsd_id_44760
1.0
2.931 0.000 0.000
-1.465 2.538 0.000
0.000 0.000 4.786
Li
2
Direct
0.333 0.667 0.25
0.667 0.333 0.75
