oqmd_id_30676, icsd_id_642106
1.0
-2.950 0.000 0.000
1.475 -2.554 0.000
-1.475 0.851 7.243
Li
3
Direct
0 0 0
0.222 0.778 0.333
0.778 0.222 0.667
