oqmd_id_1214718, icsd_id_1
1.0
-2.105 -4.647 0.000
-2.105 4.647 0.000
0.000 0.000 -3.439
Li
4
Direct
0.868 0.132 0.000273
0.368 0.632 0.5
0.632 0.368 0.5
0.132 0.868 1
