oqmd_id_20426, icsd_id_161377
1.0
3.144 0.000 0.000
0.000 3.144 0.000
0.000 0.000 3.144
Li
4
Direct
0.625 0.875 0.125
0.875 0.125 0.625
0.125 0.625 0.875
0.375 0.375 0.375
