oqmd_id_1215431, icsd_id_1
1.0
2.951 0.000 0.000
-1.476 2.556 0.000
0.000 0.000 9.450
Li
4
Direct
0 0 0
0.333 0.667 0.25
0 0 0.5
0.667 0.333 0.75
