oqmd_id_1215520, icsd_id_1
1.0
0.000 2.653 -2.653
2.653 0.000 2.653
0.000 -2.653 -2.653
Li
2
Direct
0 0 0
0.25 0.5 0.75
