oqmd_id_1215876, icsd_id_1
1.0
4.256 0.000 0.000
-2.128 3.686 0.000
0.000 0.000 3.215
Li
3
Direct
0.666 0.666 0
0.334 0 0.333
0 0.334 0.667
