oqmd_id_13862, icsd_id_76948
1.0
2.084 -2.084 0.000
-2.084 0.000 -2.084
2.084 2.084 0.000
Li
1
Direct
0 0 0
