oqmd_id_1215698, icsd_id_1
1.0
0.000 -2.867 0.000
-2.867 0.000 0.000
1.434 1.434 -2.168
Li
1
Direct
0 0 0
