oqmd_id_1215787, icsd_id_1
1.0
1.667 -2.888 0.000
-1.667 -2.888 0.000
0.000 1.925 -3.624
Li
2
Direct
0.75 0.75 0.25
0.25 0.25 0.75
