oqmd_id_18968, icsd_id_109012
1.0
-3.224 3.224 -3.224
3.224 3.224 3.224
3.224 -3.224 -3.224
Li
8
Direct
0 0.0311 0
0 0.531 0
0.5 0 0.0311
0.969 0.969 0.469
0.531 0.5 0.5
0.0311 0.5 0.5
0.5 0 0.531
0.469 0.469 0.969
