oqmd_id_1216056, icsd_id_1
1.0
2.951 0.000 0.000
-1.475 -2.556 0.000
1.475 -0.852 -7.183
Li
3
Direct
0 0 0
0.444 0.222 0.333
0.556 0.778 0.667
