oqmd_id_1215074, icsd_id_1
1.0
0.000 0.000 3.168
4.450 0.000 0.000
2.225 5.032 0.000
Li
4
Direct
0.999 0.37 0.26
0.501 0.87 0.26
0.499 0.13 0.74
0.00106 0.63 0.74
