oqmd_id_1216055, icsd_id_1
1.0
-2.893 0.000 0.000
1.446 -2.505 0.000
-1.446 0.835 6.974
Li
3
Direct
0 0 0
0.222 0.778 0.333
0.778 0.222 0.667
