oqmd_id_22487, icsd_id_182499
1.0
6.942 -2.723 0.000
-6.942 -2.723 0.000
0.000 0.000 -5.385
Li
12
Direct
0.75 0.75 0.000271
0.616 0.296 0.25
0.296 0.616 0.25
0.796 0.116 0.25
0.116 0.796 0.25
0.25 0.25 0.5
0.75 0.75 0.5
0.884 0.204 0.75
0.204 0.884 0.75
0.704 0.384 0.75
0.384 0.704 0.75
0.25 0.25 1
