oqmd_id_1215252, icsd_id_1
1.0
2.811 0.000 0.000
1.405 2.652 0.000
0.000 0.000 4.754
Li
2
Direct
0.845 0.31 0.25
0.155 0.69 0.75
