oqmd_id_1215965, icsd_id_1
1.0
4.159 0.000 0.000
-2.080 3.602 0.000
0.000 0.000 4.824
Li
4
Direct
0 0 0.25
0.333 0.667 0.25
0 0 0.75
0.667 0.333 0.75
