oqmd_id_1214629, icsd_id_1
1.0
-1.532 -0.884 -2.188
0.000 -1.769 2.188
-1.532 0.884 2.188
Li
1
Direct
0 0 0
