oqmd_id_18967, icsd_id_109011
1.0
1.456 -0.841 -2.286
0.000 1.681 -2.286
1.456 0.841 2.286
Li
1
Direct
0 0 0
