oqmd_id_1214896, icsd_id_1
1.0
7.125 0.000 0.000
0.000 7.125 0.000
0.000 0.000 7.125
Li
20
Direct
0.875 0.703 0.0466
0.0625 0.0625 0.0625
0.203 0.453 0.125
0.813 0.313 0.187
0.453 0.125 0.203
0.547 0.625 0.297
0.187 0.813 0.313
0.797 0.953 0.375
0.937 0.563 0.437
0.125 0.203 0.453
0.625 0.297 0.547
0.437 0.937 0.563
0.297 0.547 0.625
0.687 0.687 0.687
0.0466 0.875 0.703
0.953 0.375 0.797
0.313 0.187 0.813
0.703 0.0466 0.875
0.563 0.437 0.937
0.375 0.797 0.953
