oqmd_id_1215163, icsd_id_1
1.0
1.647 1.647 -1.647
1.647 -1.647 1.647
-1.647 -1.647 -1.647
Li
1
Direct
0 0 0
