oqmd_id_1277944, icsd_id_1
1.0
6.388 -6.388 0.000
6.388 6.388 0.000
-6.388 0.000 6.388
Li
28
Direct
0 0 0
0.698 0.0596 0
0.44 0.198 0
0.94 0.302 0
0.198 0.44 0
0.5 0.5 0
0.802 0.56 0
0.0596 0.698 0
0.56 0.802 0
0.302 0.94 0
0.302 0.302 0.243
0.802 0.44 0.243
0.44 0.802 0.243
0.94 0.94 0.243
0.302 0.0596 0.362
0.0596 0.302 0.362
0.56 0.56 0.362
0.802 0.802 0.362
0.75 0.25 0.5
0.25 0.75 0.5
0.198 0.198 0.638
0.44 0.44 0.638
0.94 0.698 0.638
0.698 0.94 0.638
0.0596 0.0596 0.757
0.56 0.198 0.757
0.198 0.56 0.757
0.698 0.698 0.757
