oqmd_id_1214985, icsd_id_1
1.0
5.226 0.000 0.000
0.000 5.226 0.000
0.000 0.000 5.226
Li
8
Direct
0 0 0
0.5 0.25 0
0.5 0.75 0
0 0.5 0.25
0.25 0 0.5
0.75 0 0.5
0.5 0.5 0.5
0 0.5 0.75
